[[14, 59, 11, 66, 65, 38, 58, 10, 31, 72, 39, 9, 12, 40, 3, 44, 32, 25, 55, 50, 18, 24, 49], [16, 51, 33, 63, 23, 56, 41, 43, 42, 64, 22, 73, 62, 28, 74, 61, 21, 47, 69, 36, 71], [60, 70, 20, 37, 5, 15, 57, 27, 45, 29, 48, 30, 2, 4, 68, 75, 6, 17, 76, 26, 67, 7, 8, 34, 46, 52, 13, 54, 19, 35, 53]]